[[47,55,229,253,273,466,473,735,786,795,802,828],[65,68,272,296,398,480,532,550,566,832,835,848],[29,214,225,250,394,457,459,711,730,753,756,764],[174,192,198,200,215,375,376,399,409,424,704,709],[1,89,153,201,344,346,348,363,633,670,671,959,964],[2,24,137,156,161,166,366,371,684,691,991,994,999],[38,39,73,276,310,317,324,572,579,586,851,857,920],[64,70,75,82,113,338,342,594,607,632,926,941,958]]